NAME          DCAP_3_4_2_500_SS149
ROWS
 N  OBJ
 L  CON1
 L  CON2
 L  CON3
 L  CON4
 L  CON5
 L  CON6
 L  CON7
 L  CON8
 L  CON9
 L  CON10
 L  CON11
 L  CON12
 E  CON13
 E  CON14
 E  CON15
 E  CON16
 E  CON17
 E  CON18
 E  CON19
 E  CON20
COLUMNS
    x[1,1]    OBJ       6.180167      CON1      1.000000    
    x[1,1]    CON7      -1.000000     CON8      -1.000000   
    x[1,2]    OBJ       5.039546      CON2      1.000000    
    x[1,2]    CON8      -1.000000   
    x[2,1]    OBJ       6.732585      CON3      1.000000    
    x[2,1]    CON9      -1.000000     CON10     -1.000000   
    x[2,2]    OBJ       7.443064      CON4      1.000000    
    x[2,2]    CON10     -1.000000   
    x[3,1]    OBJ       6.563535      CON5      1.000000    
    x[3,1]    CON11     -1.000000     CON12     -1.000000   
    x[3,2]    OBJ       6.054841      CON6      1.000000    
    x[3,2]    CON12     -1.000000   
    MARKER    'MARKER'                'INTORG'
    u[1,1]    OBJ       48.076654     CON1      -1.000000   
    u[1,2]    OBJ       49.466655     CON2      -1.000000   
    u[2,1]    OBJ       49.996186     CON3      -1.000000   
    u[2,2]    OBJ       32.230043     CON4      -1.000000   
    u[3,1]    OBJ       20.066487     CON5      -1.000000   
    u[3,2]    OBJ       27.484319     CON6      -1.000000   
    y[1,1,1]  OBJ       8.549622      CON7      1.151310    
    y[1,1,1]  CON13     1.000000    
    y[1,1,2]  OBJ       9.944686      CON8      0.689821    
    y[1,1,2]  CON14     1.000000    
    y[1,2,1]  OBJ       6.400962      CON7      1.197614    
    y[1,2,1]  CON15     1.000000    
    y[1,2,2]  OBJ       5.225837      CON8      1.283844    
    y[1,2,2]  CON16     1.000000    
    y[1,3,1]  OBJ       8.455670      CON7      1.287291    
    y[1,3,1]  CON17     1.000000    
    y[1,3,2]  OBJ       9.887043      CON8      1.392658    
    y[1,3,2]  CON18     1.000000    
    y[1,4,1]  OBJ       5.556044      CON7      0.777396    
    y[1,4,1]  CON19     1.000000    
    y[1,4,2]  OBJ       9.848529      CON8      0.715826    
    y[1,4,2]  CON20     1.000000    
    y[2,1,1]  OBJ       9.496606      CON9      1.151310    
    y[2,1,1]  CON13     1.000000    
    y[2,1,2]  OBJ       9.569604      CON10     0.689821    
    y[2,1,2]  CON14     1.000000    
    y[2,2,1]  OBJ       8.239543      CON9      1.197614    
    y[2,2,1]  CON15     1.000000    
    y[2,2,2]  OBJ       7.986462      CON10     1.283844    
    y[2,2,2]  CON16     1.000000    
    y[2,3,1]  OBJ       5.258192      CON9      1.287291    
    y[2,3,1]  CON17     1.000000    
    y[2,3,2]  OBJ       8.031243      CON10     1.392658    
    y[2,3,2]  CON18     1.000000    
    y[2,4,1]  OBJ       6.318512      CON9      0.777396    
    y[2,4,1]  CON19     1.000000    
    y[2,4,2]  OBJ       6.886825      CON10     0.715826    
    y[2,4,2]  CON20     1.000000    
    y[3,1,1]  OBJ       8.971486      CON11     1.151310    
    y[3,1,1]  CON13     1.000000    
    y[3,1,2]  OBJ       6.955458      CON12     0.689821    
    y[3,1,2]  CON14     1.000000    
    y[3,2,1]  OBJ       8.716229      CON11     1.197614    
    y[3,2,1]  CON15     1.000000    
    y[3,2,2]  OBJ       6.296174      CON12     1.283844    
    y[3,2,2]  CON16     1.000000    
    y[3,3,1]  OBJ       7.393490      CON11     1.287291    
    y[3,3,1]  CON17     1.000000    
    y[3,3,2]  OBJ       5.947386      CON12     1.392658    
    y[3,3,2]  CON18     1.000000    
    y[3,4,1]  OBJ       7.140474      CON11     0.777396    
    y[3,4,1]  CON19     1.000000    
    y[3,4,2]  OBJ       8.776216      CON12     0.715826    
    y[3,4,2]  CON20     1.000000    
    z[1,1]    OBJ       674.735256    CON13     1.000000    
    z[1,2]    OBJ       561.481380    CON14     1.000000    
    z[2,1]    OBJ       914.906651    CON15     1.000000    
    z[2,2]    OBJ       790.123158    CON16     1.000000    
    z[3,1]    OBJ       974.160363    CON17     1.000000    
    z[3,2]    OBJ       633.083397    CON18     1.000000    
    z[4,1]    OBJ       788.036586    CON19     1.000000    
    z[4,2]    OBJ       984.326300    CON20     1.000000    
    MARKER    'MARKER'                 'INTEND'
RHS
    RHS       CON1      -0.000000     CON2      -0.000000   
    RHS       CON3      -0.000000     CON4      -0.000000   
    RHS       CON5      -0.000000     CON6      -0.000000   
    RHS       CON7      -0.000000     CON8      -0.000000   
    RHS       CON9      -0.000000     CON10     -0.000000   
    RHS       CON11     -0.000000     CON12     -0.000000   
    RHS       CON13     1.000000      CON14     1.000000    
    RHS       CON15     1.000000      CON16     1.000000    
    RHS       CON17     1.000000      CON18     1.000000    
    RHS       CON19     1.000000      CON20     1.000000    
BOUNDS
 BV BOUND     u[1,1]  
 BV BOUND     u[1,2]  
 BV BOUND     u[2,1]  
 BV BOUND     u[2,2]  
 BV BOUND     u[3,1]  
 BV BOUND     u[3,2]  
 BV BOUND     y[1,1,1]
 BV BOUND     y[1,1,2]
 BV BOUND     y[1,2,1]
 BV BOUND     y[1,2,2]
 BV BOUND     y[1,3,1]
 BV BOUND     y[1,3,2]
 BV BOUND     y[1,4,1]
 BV BOUND     y[1,4,2]
 BV BOUND     y[2,1,1]
 BV BOUND     y[2,1,2]
 BV BOUND     y[2,2,1]
 BV BOUND     y[2,2,2]
 BV BOUND     y[2,3,1]
 BV BOUND     y[2,3,2]
 BV BOUND     y[2,4,1]
 BV BOUND     y[2,4,2]
 BV BOUND     y[3,1,1]
 BV BOUND     y[3,1,2]
 BV BOUND     y[3,2,1]
 BV BOUND     y[3,2,2]
 BV BOUND     y[3,3,1]
 BV BOUND     y[3,3,2]
 BV BOUND     y[3,4,1]
 BV BOUND     y[3,4,2]
 BV BOUND     z[1,1]  
 BV BOUND     z[1,2]  
 BV BOUND     z[2,1]  
 BV BOUND     z[2,2]  
 BV BOUND     z[3,1]  
 BV BOUND     z[3,2]  
 BV BOUND     z[4,1]  
 BV BOUND     z[4,2]  
ENDATA
